; DUP2 POP => 
(set-option :produce-proofs true)
; 
(set-info :status unknown)
(declare-fun storage_t ((_ BitVec 256) (_ BitVec 256) Int (_ BitVec 256)) (_ BitVec 256))
(declare-fun storage_s ((_ BitVec 256) (_ BitVec 256) Int (_ BitVec 256)) (_ BitVec 256))
(declare-fun exc_halt_t (Int) Bool)
(declare-fun exc_halt_s (Int) Bool)
(declare-fun sc_t (Int) (_ BitVec 6))
(declare-fun stack_t ((_ BitVec 256) (_ BitVec 256) Int (_ BitVec 6)) (_ BitVec 256))
(declare-fun stack_s ((_ BitVec 256) (_ BitVec 256) Int (_ BitVec 6)) (_ BitVec 256))
(declare-fun sc_s (Int) (_ BitVec 6))
(declare-fun used_gas_t ((_ BitVec 256) (_ BitVec 256) Int) Int)
(declare-fun used_gas_s ((_ BitVec 256) (_ BitVec 256) Int) Int)
(assert
 (exists ((x_0 (_ BitVec 256)) (x_1 (_ BitVec 256)) )(let (($x498 (forall ((w (_ BitVec 256)) )(let ((?x449 (storage_t x_0 x_1 0 w)))
 (let ((?x481 (storage_s x_0 x_1 2 w)))
 (= ?x481 ?x449))))
 ))
 (let (($x56 (exc_halt_t 0)))
 (let (($x247 (exc_halt_s 2)))
 (let (($x4414 (= $x247 $x56)))
 (let (($x497 (forall ((n (_ BitVec 6)) )(let ((?x63 (sc_t 0)))
 (let (($x3168 (bvsle ?x63 n)))
 (let ((?x464 (stack_t x_0 x_1 0 n)))
 (let ((?x461 (stack_s x_0 x_1 2 n)))
 (let (($x482 (= ?x461 ?x464)))
 (or $x482 $x3168)))))))
 ))
 (let ((?x63 (sc_t 0)))
 (let ((?x218 (sc_s 2)))
 (let (($x4432 (= ?x218 ?x63)))
 (let ((?x4629 (used_gas_s x_0 x_1 0)))
 (let (($x4613 (= ?x4629 (used_gas_t x_0 x_1 0))))
 (let (($x4606 (forall ((w (_ BitVec 256)) )(let ((?x449 (storage_t x_0 x_1 0 w)))
 (let ((?x4614 (storage_s x_0 x_1 0 w)))
 (= ?x4614 ?x449))))
 ))
 (let (($x57 (exc_halt_s 0)))
 (let (($x58 (= $x57 $x56)))
 (let (($x18 (forall ((n (_ BitVec 6)) )(let ((?x464 (stack_t x_0 x_1 0 n)))
 (let ((?x4607 (stack_s x_0 x_1 0 n)))
 (let (($x4596 (= ?x4607 ?x464)))
 (let ((?x63 (sc_t 0)))
 (let (($x3168 (bvsle ?x63 n)))
 (or $x3168 $x4596)))))))
 ))
 (let ((?x72 (sc_s 0)))
 (let (($x73 (= ?x72 ?x63)))
 (let (($x6023 (= $x247 (or (exc_halt_s 1) (not (bvsle (_ bv0 6) (bvadd (_ bv63 6) (sc_s 1))))))))
 (let (($x480 (forall ((w (_ BitVec 256)) )(let ((?x4567 (storage_s x_0 x_1 1 w)))
 (let ((?x481 (storage_s x_0 x_1 2 w)))
 (= ?x481 ?x4567))))
 ))
 (let (($x451 (forall ((n (_ BitVec 6)) )(let ((?x154 (sc_s 1)))
 (let ((?x9701 (bvadd (_ bv63 6) ?x154)))
 (let (($x9489 (bvsle ?x9701 n)))
 (or (= (stack_s x_0 x_1 2 n) (stack_s x_0 x_1 1 n)) $x9489)))))
 ))
 (let (($x324 (= (used_gas_s x_0 x_1 2) (+ 2 (used_gas_s x_0 x_1 1)))))
 (let (($x9503 (not (= ((_ extract 6 6) (bvadd (_ bv1 7) (concat (_ bv0 1) ?x72))) (_ bv0 1)))))
 (let (($x189 (exc_halt_s 1)))
 (let (($x5991 (= $x189 (or $x57 (not (bvsle (_ bv0 6) (bvadd (_ bv62 6) ?x72))) $x9503))))
 (let (($x203 (forall ((w (_ BitVec 256)) )(let ((?x4614 (storage_s x_0 x_1 0 w)))
 (let ((?x4567 (storage_s x_0 x_1 1 w)))
 (= ?x4567 ?x4614))))
 ))
 (let (($x200 (forall ((n (_ BitVec 6)) )(let ((?x72 (sc_s 0)))
 (let ((?x6422 (bvadd (_ bv62 6) ?x72)))
 (let (($x6424 (bvsle ?x6422 n)))
 (or (= (stack_s x_0 x_1 1 n) (stack_s x_0 x_1 0 n)) $x6424)))))
 ))
 (let ((?x154 (sc_s 1)))
 (let (($x8922 (= ?x154 (bvadd (_ bv1 6) ?x72))))
 (let (($x49 (= (stack_s x_0 x_1 1 (bvadd (_ bv63 6) ?x72)) (stack_s x_0 x_1 0 (bvadd (_ bv63 6) ?x72)))))
 (let ((?x6422 (bvadd (_ bv62 6) ?x72)))
 (let ((?x4345 (stack_s x_0 x_1 0 ?x6422)))
 (let (($x4416 (forall ((w (_ BitVec 256)) )(let ((?x4614 (storage_s x_0 x_1 0 w)))
 (= ?x4614 (_ bv0 256))))
 ))
 (let (($x4415 (= ?x4629 0)))
 (let (($x5037 (not $x57)))
 (let (($x4408 (= (stack_s x_0 x_1 0 (_ bv1 6)) x_1)))
 (let (($x4398 (= (stack_s x_0 x_1 0 (_ bv0 6)) x_0)))
 (let (($x8956 (= ?x72 (_ bv2 6))))
 (and $x8956 $x4398 $x4408 $x5037 $x4415 $x4416 (= (stack_s x_0 x_1 1 (bvadd (_ bv63 6) ?x154)) ?x4345) (= (stack_s x_0 x_1 1 ?x6422) ?x4345) $x49 (= (used_gas_s x_0 x_1 1) (+ 3 ?x4629)) $x8922 $x200 $x203 $x5991 $x324 (= ?x218 (bvadd (_ bv63 6) ?x154)) $x451 $x480 $x6023 $x73 $x18 $x58 $x4606 $x4613 (not (and $x4432 $x497 $x4414 $x498))))))))))))))))))))))))))))))))))))))))
 )
(check-sat)
(get-proof)
